(set-info :status sat)
(declare-const symbol_216 (_ BitVec 32))
(declare-const symbol_140 (_ BitVec 32))
(declare-const symbol_498 (_ BitVec 32))
(declare-const symbol_422 (_ BitVec 32))
(declare-const symbol_738 (_ BitVec 32))
(declare-const symbol_240 (_ BitVec 32))
(declare-const symbol_510 (_ BitVec 32))
(declare-const symbol_472 (_ BitVec 32))
(declare-const symbol_222 (_ BitVec 32))
(declare-const symbol_568 (_ BitVec 32))
(declare-const symbol_562 (_ BitVec 32))
(declare-const symbol_484 (_ BitVec 32))
(declare-const symbol_125 (_ BitVec 32))
(declare-const symbol_513 (_ BitVec 32))
(declare-const symbol_366 (_ BitVec 32))
(declare-const symbol_458 (_ BitVec 32))
(declare-const symbol_156 (_ BitVec 32))
(declare-const symbol_110 (_ BitVec 32))
(declare-const symbol_91 (_ BitVec 32))
(declare-const symbol_198 (_ BitVec 32))
(declare-const symbol_58 (_ BitVec 32))
(declare-const symbol_388 (_ BitVec 32))
(declare-const symbol_296 (_ BitVec 32))
(declare-const symbol_152 (_ BitVec 32))
(declare-const symbol_257 (_ BitVec 32))
(declare-const symbol_247 (_ BitVec 32))
(declare-const symbol_224 (_ BitVec 32))
(declare-const symbol_178 (_ BitVec 32))
(declare-const symbol_272 (_ BitVec 32))
(declare-const symbol_131 (_ BitVec 32))
(declare-const symbol_620 (_ BitVec 32))
(declare-const symbol_289 (_ BitVec 32))
(declare-const symbol_478 (_ BitVec 32))
(declare-const symbol_757 (_ BitVec 32))
(declare-const symbol_26 (_ BitVec 32))
(declare-const symbol_621 (_ BitVec 32))
(declare-const symbol_554 (_ BitVec 32))
(declare-const symbol_29 (_ BitVec 32))
(declare-const symbol_746 (_ BitVec 32))
(declare-const symbol_44 (_ BitVec 32))
(declare-const symbol_251 (_ BitVec 32))
(declare-const symbol_584 (_ BitVec 32))
(declare-const symbol_560 (_ BitVec 32))
(declare-const symbol_398 (_ BitVec 32))
(declare-const symbol_103 (_ BitVec 32))
(declare-const symbol_750 (_ BitVec 32))
(declare-const symbol_550 (_ BitVec 32))
(declare-const symbol_396 (_ BitVec 32))
(declare-const symbol_255 (_ BitVec 32))
(declare-const symbol_52 (_ BitVec 32))
(declare-const symbol_16 (_ BitVec 32))
(declare-const symbol_704 (_ BitVec 32))
(declare-const symbol_267 (_ BitVec 32))
(declare-const symbol_265 (_ BitVec 32))
(declare-const symbol_95 (_ BitVec 32))
(declare-const symbol_748 (_ BitVec 32))
(declare-const symbol_608 (_ BitVec 32))
(declare-const symbol_428 (_ BitVec 32))
(declare-const symbol_24 (_ BitVec 32))
(declare-const symbol_1 (_ BitVec 32))
(declare-const symbol_370 (_ BitVec 32))
(declare-const symbol_185 (_ BitVec 32))
(declare-const symbol_682 (_ BitVec 32))
(declare-const symbol_281 (_ BitVec 32))
(declare-const symbol_176 (_ BitVec 32))
(declare-const symbol_234 (_ BitVec 32))
(declare-const symbol_62 (_ BitVec 32))
(declare-const symbol_380 (_ BitVec 32))
(declare-const symbol_594 (_ BitVec 32))
(declare-const symbol_470 (_ BitVec 32))
(declare-const symbol_566 (_ BitVec 32))
(declare-const symbol_274 (_ BitVec 32))
(declare-const symbol_474 (_ BitVec 32))
(declare-const symbol_200 (_ BitVec 32))
(declare-const symbol_278 (_ BitVec 32))
(declare-const symbol_343 (_ BitVec 32))
(declare-const symbol_136 (_ BitVec 32))
(declare-const symbol_590 (_ BitVec 32))
(declare-const symbol_455 (_ BitVec 32))
(declare-const symbol_101 (_ BitVec 32))
(declare-const symbol_154 (_ BitVec 32))
(declare-const symbol_663 (_ BitVec 32))
(declare-const symbol_641 (_ BitVec 32))
(declare-const symbol_688 (_ BitVec 32))
(declare-const symbol_415 (_ BitVec 32))
(declare-const symbol_194 (_ BitVec 32))
(declare-const symbol_659 (_ BitVec 32))
(declare-const symbol_602 (_ BitVec 32))
(declare-const symbol_444 (_ BitVec 32))
(declare-const symbol_400 (_ BitVec 32))
(declare-const symbol_504 (_ BitVec 32))
(declare-const symbol_490 (_ BitVec 32))
(declare-const symbol_722 (_ BitVec 32))
(declare-const symbol_426 (_ BitVec 32))
(declare-const symbol_210 (_ BitVec 32))
(declare-const symbol_12 (_ BitVec 32))
(declare-const symbol_238 (_ BitVec 32))
(declare-const symbol_70 (_ BitVec 32))
(declare-const symbol_506 (_ BitVec 32))
(declare-const symbol_187 (_ BitVec 32))
(declare-const symbol_353 (_ BitVec 32))
(declare-const symbol_462 (_ BitVec 32))
(declare-const symbol_321 (_ BitVec 32))
(declare-const symbol_162 (_ BitVec 32))
(declare-const symbol_347 (_ BitVec 32))
(declare-const symbol_304 (_ BitVec 32))
(declare-const symbol_692 (_ BitVec 32))
(declare-const symbol_160 (_ BitVec 32))
(declare-const symbol_708 (_ BitVec 32))
(declare-const symbol_134 (_ BitVec 32))
(declare-const symbol_112 (_ BitVec 32))
(declare-const symbol_616 (_ BitVec 32))
(declare-const symbol_578 (_ BitVec 32))
(declare-const symbol_570 (_ BitVec 32))
(declare-const symbol_410 (_ BitVec 32))
(declare-const symbol_372 (_ BitVec 32))
(declare-const symbol_356 (_ BitVec 32))
(declare-const symbol_349 (_ BitVec 32))
(declare-const symbol_319 (_ BitVec 32))
(declare-const symbol_394 (_ BitVec 32))
(declare-const symbol_302 (_ BitVec 32))
(declare-const symbol_378 (_ BitVec 32))
(declare-const symbol_716 (_ BitVec 32))
(declare-const symbol_482 (_ BitVec 32))
(declare-const symbol_480 (_ BitVec 32))
(declare-const symbol_468 (_ BitVec 32))
(declare-const symbol_538 (_ BitVec 32))
(declare-const symbol_486 (_ BitVec 32))
(declare-const symbol_204 (_ BitVec 32))
(declare-const symbol_116 (_ BitVec 32))
(declare-const symbol_85 (_ BitVec 32))
(declare-const symbol_700 (_ BitVec 32))
(declare-const symbol_635 (_ BitVec 32))
(declare-const symbol_436 (_ BitVec 32))
(declare-const symbol_345 (_ BitVec 32))
(declare-const symbol_220 (_ BitVec 32))
(declare-const symbol_424 (_ BitVec 32))
(declare-const symbol_310 (_ BitVec 32))
(declare-const symbol_530 (_ BitVec 32))
(declare-const symbol_451 (_ BitVec 32))
(declare-const symbol_291 (_ BitVec 32))
(declare-const symbol_624 (_ BitVec 32))
(declare-const symbol_697 (_ BitVec 32))
(declare-const symbol_368 (_ BitVec 32))
(declare-const symbol_544 (_ BitVec 32))
(declare-const symbol_315 (_ BitVec 32))
(declare-const symbol_306 (_ BitVec 32))
(declare-const symbol_230 (_ BitVec 32))
(declare-const symbol_259 (_ BitVec 32))
(declare-const symbol_192 (_ BitVec 32))
(declare-const symbol_183 (_ BitVec 32))
(declare-const symbol_108 (_ BitVec 32))
(declare-const symbol_285 (_ BitVec 32))
(declare-const symbol_3 (_ BitVec 32))
(declare-const symbol_123 (_ BitVec 32))
(declare-const symbol_631 (_ BitVec 32))
(declare-const symbol_196 (_ BitVec 32))
(declare-const symbol_263 (_ BitVec 32))
(declare-const symbol_127 (_ BitVec 32))
(declare-const symbol_72 (_ BitVec 32))
(declare-const symbol_546 (_ BitVec 32))
(declare-const symbol_341 (_ BitVec 32))
(declare-const symbol_665 (_ BitVec 32))
(declare-const symbol_97 (_ BitVec 32))
(declare-const symbol_390 (_ BitVec 32))
(declare-const symbol_576 (_ BitVec 32))
(declare-const symbol_333 (_ BitVec 32))
(declare-const symbol_170 (_ BitVec 32))
(declare-const symbol_174 (_ BitVec 32))
(declare-const symbol_684 (_ BitVec 32))
(declare-const symbol_612 (_ BitVec 32))
(declare-const symbol_142 (_ BitVec 32))
(declare-const symbol_89 (_ BitVec 32))
(declare-const symbol_606 (_ BitVec 32))
(declare-const symbol_206 (_ BitVec 32))
(declare-const symbol_694 (_ BitVec 32))
(declare-const symbol_676 (_ BitVec 32))
(declare-const symbol_643 (_ BitVec 32))
(declare-const symbol_548 (_ BitVec 32))
(declare-const symbol_53 (_ BitVec 32))
(declare-const symbol_276 (_ BitVec 32))
(declare-const symbol_649 (_ BitVec 32))
(declare-const symbol_442 (_ BitVec 32))
(declare-const symbol_148 (_ BitVec 32))
(declare-const symbol_138 (_ BitVec 32))
(declare-const symbol_8 (_ BitVec 32))
(declare-const symbol_129 (_ BitVec 32))
(declare-const symbol_114 (_ BitVec 32))
(declare-const symbol_245 (_ BitVec 32))
(declare-const symbol_81 (_ BitVec 32))
(declare-const symbol_637 (_ BitVec 32))
(declare-const symbol_386 (_ BitVec 32))
(declare-const symbol_48 (_ BitVec 32))
(declare-const symbol_406 (_ BitVec 32))
(declare-const symbol_317 (_ BitVec 32))
(declare-const symbol_312 (_ BitVec 32))
(declare-const symbol_714 (_ BitVec 32))
(declare-const symbol_653 (_ BitVec 32))
(declare-const symbol_536 (_ BitVec 32))
(declare-const symbol_476 (_ BitVec 32))
(declare-const symbol_466 (_ BitVec 32))
(declare-const symbol_419 (_ BitVec 32))
(declare-const symbol_754 (_ BitVec 32))
(declare-const symbol_460 (_ BitVec 32))
(declare-const symbol_35 (_ BitVec 32))
(declare-const symbol_588 (_ BitVec 32))
(declare-const symbol_226 (_ BitVec 32))
(declare-const symbol_298 (_ BitVec 32))
(declare-const symbol_614 (_ BitVec 32))
(declare-const symbol_706 (_ BitVec 32))
(declare-const symbol_574 (_ BitVec 32))
(declare-const symbol_447 (_ BitVec 32))
(declare-const symbol_432 (_ BitVec 32))
(declare-const symbol_496 (_ BitVec 32))
(declare-const symbol_610 (_ BitVec 32))
(declare-const symbol_382 (_ BitVec 32))
(declare-const symbol_740 (_ BitVec 32))
(declare-const symbol_488 (_ BitVec 32))
(declare-const symbol_433 (_ BitVec 32))
(declare-const symbol_77 (_ BitVec 32))
(declare-const symbol_60 (_ BitVec 32))
(declare-const symbol_732 (_ BitVec 32))
(declare-const symbol_657 (_ BitVec 32))
(declare-const symbol_327 (_ BitVec 32))
(declare-const symbol_28 (_ BitVec 32))
(declare-const symbol_734 (_ BitVec 32))
(declare-const symbol_696 (_ BitVec 32))
(declare-const symbol_647 (_ BitVec 32))
(declare-const symbol_628 (_ BitVec 32))
(declare-const symbol_158 (_ BitVec 32))
(declare-const symbol_323 (_ BitVec 32))
(declare-const symbol_335 (_ BitVec 32))
(declare-const symbol_166 (_ BitVec 32))
(declare-const symbol_726 (_ BitVec 32))
(declare-const symbol_564 (_ BitVec 32))
(declare-const symbol_528 (_ BitVec 32))
(declare-const symbol_329 (_ BitVec 32))
(declare-const symbol_181 (_ BitVec 32))
(declare-const symbol_47 (_ BitVec 32))
(declare-const symbol_710 (_ BitVec 32))
(declare-const symbol_540 (_ BitVec 32))
(declare-const symbol_14 (_ BitVec 32))
(declare-const symbol_408 (_ BitVec 32))
(declare-const symbol_117 (_ BitVec 32))
(declare-const symbol_74 (_ BitVec 32))
(declare-const symbol_22 (_ BitVec 32))
(declare-const symbol_580 (_ BitVec 32))
(declare-const symbol_517 (_ BitVec 32))
(declare-const symbol_439 (_ BitVec 32))
(declare-const symbol_556 (_ BitVec 32))
(declare-const symbol_79 (_ BitVec 32))
(declare-const symbol_604 (_ BitVec 32))
(declare-const symbol_228 (_ BitVec 32))
(declare-const symbol_50 (_ BitVec 32))
(declare-const symbol_542 (_ BitVec 32))
(declare-const symbol_449 (_ BitVec 32))
(declare-const symbol_358 (_ BitVec 32))
(declare-const symbol_287 (_ BitVec 32))
(declare-const symbol_558 (_ BitVec 32))
(declare-const symbol_526 (_ BitVec 32))
(declare-const symbol_300 (_ BitVec 32))
(declare-const symbol_21 (_ BitVec 32))
(declare-const symbol_19 (_ BitVec 32))
(declare-const symbol_639 (_ BitVec 32))
(declare-const symbol_494 (_ BitVec 32))
(declare-const symbol_43 (_ BitVec 32))
(declare-const symbol_629 (_ BitVec 32))
(declare-const symbol_598 (_ BitVec 32))
(declare-const symbol_218 (_ BitVec 32))
(declare-const symbol_93 (_ BitVec 32))
(declare-const symbol_742 (_ BitVec 32))
(declare-const symbol_31 (_ BitVec 32))
(declare-const symbol_718 (_ BitVec 32))
(declare-const symbol_404 (_ BitVec 32))
(declare-const symbol_645 (_ BitVec 32))
(declare-const symbol_212 (_ BitVec 32))
(declare-const symbol_208 (_ BitVec 32))
(declare-const symbol_362 (_ BitVec 32))
(declare-const symbol_242 (_ BitVec 32))
(declare-const symbol_667 (_ BitVec 32))
(declare-const symbol_39 (_ BitVec 32))
(declare-const symbol_702 (_ BitVec 32))
(declare-const symbol_678 (_ BitVec 32))
(declare-const symbol_736 (_ BitVec 32))
(declare-const symbol_119 (_ BitVec 32))
(declare-const symbol_360 (_ BitVec 32))
(declare-const symbol_337 (_ BitVec 32))
(declare-const symbol_515 (_ BitVec 32))
(declare-const symbol_331 (_ BitVec 32))
(declare-const symbol_261 (_ BitVec 32))
(declare-const symbol_633 (_ BitVec 32))
(declare-const symbol_232 (_ BitVec 32))
(declare-const symbol_68 (_ BitVec 32))
(declare-const symbol_150 (_ BitVec 32))
(declare-const symbol_744 (_ BitVec 32))
(declare-const symbol_586 (_ BitVec 32))
(declare-const symbol_728 (_ BitVec 32))
(declare-const symbol_523 (_ BitVec 32))
(declare-const symbol_294 (_ BitVec 32))
(declare-const symbol_144 (_ BitVec 32))
(declare-const symbol_655 (_ BitVec 32))
(declare-const symbol_283 (_ BitVec 32))
(declare-const symbol_755 (_ BitVec 32))
(declare-const symbol_33 (_ BitVec 32))
(declare-const symbol_164 (_ BitVec 32))
(declare-const symbol_592 (_ BitVec 32))
(declare-const symbol_384 (_ BitVec 32))
(declare-const symbol_253 (_ BitVec 32))
(declare-const symbol_63 (_ BitVec 32))
(declare-const symbol_596 (_ BitVec 32))
(declare-const symbol_374 (_ BitVec 32))
(declare-const symbol_168 (_ BitVec 32))
(declare-const symbol_618 (_ BitVec 32))
(declare-const symbol_172 (_ BitVec 32))
(declare-const symbol_10 (_ BitVec 32))
(declare-const symbol_532 (_ BitVec 32))
(declare-const symbol_724 (_ BitVec 32))
(declare-const symbol_511 (_ BitVec 32))
(declare-const symbol_674 (_ BitVec 32))
(declare-const symbol_249 (_ BitVec 32))
(declare-const symbol_0 (_ BitVec 32))
(declare-const symbol_392 (_ BitVec 32))
(declare-const symbol_712 (_ BitVec 32))
(declare-const symbol_521 (_ BitVec 32))
(declare-const symbol_626 (_ BitVec 32))
(declare-const symbol_65 (_ BitVec 32))
(declare-const symbol_270 (_ BitVec 32))
(declare-const symbol_133 (_ BitVec 32))
(declare-const symbol_651 (_ BitVec 32))
(declare-const symbol_464 (_ BitVec 32))
(declare-const symbol_325 (_ BitVec 32))
(declare-const symbol_236 (_ BitVec 32))
(declare-const symbol_105 (_ BitVec 32))
(declare-const symbol_6 (_ BitVec 32))
(declare-const symbol_730 (_ BitVec 32))
(declare-const symbol_582 (_ BitVec 32))
(declare-const symbol_572 (_ BitVec 32))
(declare-const symbol_453 (_ BitVec 32))
(declare-const symbol_202 (_ BitVec 32))
(declare-const symbol_41 (_ BitVec 32))
(declare-const symbol_752 (_ BitVec 32))
(declare-const symbol_83 (_ BitVec 32))
(declare-const symbol_508 (_ BitVec 32))
(declare-const symbol_686 (_ BitVec 32))
(declare-const symbol_690 (_ BitVec 32))
(declare-const symbol_308 (_ BitVec 32))
(declare-const symbol_430 (_ BitVec 32))
(declare-const symbol_445 (_ BitVec 32))
(declare-const symbol_402 (_ BitVec 32))
(declare-const symbol_313 (_ BitVec 32))
(declare-const symbol_37 (_ BitVec 32))
(declare-const symbol_364 (_ BitVec 32))
(declare-const symbol_339 (_ BitVec 32))
(declare-const symbol_534 (_ BitVec 32))
(declare-const symbol_190 (_ BitVec 32))
(declare-const symbol_99 (_ BitVec 32))
(declare-const symbol_412 (_ BitVec 32))
(declare-const symbol_107 (_ BitVec 32))
(declare-const symbol_502 (_ BitVec 32))
(declare-const symbol_661 (_ BitVec 32))
(declare-const symbol_600 (_ BitVec 32))
(declare-const symbol_121 (_ BitVec 32))
(declare-const symbol_669 (_ BitVec 32))
(declare-const symbol_500 (_ BitVec 32))
(declare-const symbol_552 (_ BitVec 32))
(declare-const symbol_279 (_ BitVec 32))
(declare-const symbol_56 (_ BitVec 32))
(declare-const symbol_680 (_ BitVec 32))
(declare-const symbol_492 (_ BitVec 32))
(declare-const symbol_146 (_ BitVec 32))
(declare-const symbol_376 (_ BitVec 32))
(declare-const symbol_720 (_ BitVec 32))
(declare-const symbol_437 (_ BitVec 32))
(declare-const symbol_417 (_ BitVec 32))
(declare-const symbol_214 (_ BitVec 32))
(declare-const symbol_87 (_ BitVec 32))
(declare-const symbol_671 (_ BitVec 32))
(declare-const symbol_519 (_ BitVec 32))
(declare-const symbol_355 (_ BitVec 32))
(declare-const symbol_351 (_ BitVec 32))
(assert (not (not (= symbol_757 (_ bv15 32)))))
(assert (not (not (= symbol_755 (_ bv15 32)))))
(assert (not (not (= symbol_754 (_ bv15 32)))))
(assert (not (not (= symbol_752 (_ bv15 32)))))
(assert (not (not (= symbol_750 (_ bv15 32)))))
(assert (not (not (= symbol_748 (_ bv15 32)))))
(assert (not (not (= symbol_746 (_ bv15 32)))))
(assert (not (not (= symbol_744 (_ bv15 32)))))
(assert (not (not (= symbol_742 (_ bv15 32)))))
(assert (not (not (= symbol_740 (_ bv15 32)))))
(assert (not (not (= symbol_738 (_ bv15 32)))))
(assert (not (not (= symbol_736 (_ bv15 32)))))
(assert (not (not (= symbol_734 (_ bv15 32)))))
(assert (not (not (= symbol_732 (_ bv15 32)))))
(assert (not (not (= symbol_730 (_ bv15 32)))))
(assert (not (not (= symbol_728 (_ bv15 32)))))
(assert (not (not (= symbol_726 (_ bv15 32)))))
(assert (not (not (= symbol_724 (_ bv15 32)))))
(assert (not (not (= symbol_722 (_ bv15 32)))))
(assert (not (not (= symbol_720 (_ bv15 32)))))
(assert (not (not (= symbol_718 (_ bv15 32)))))
(assert (not (not (= symbol_716 (_ bv15 32)))))
(assert (not (not (= symbol_714 (_ bv15 32)))))
(assert (not (not (= symbol_712 (_ bv15 32)))))
(assert (not (not (= symbol_710 (_ bv15 32)))))
(assert (not (not (= symbol_708 (_ bv15 32)))))
(assert (not (not (= symbol_706 (_ bv15 32)))))
(assert (not (not (= symbol_704 (_ bv15 32)))))
(assert (not (not (= symbol_702 (_ bv15 32)))))
(assert (not (not (= symbol_700 (_ bv15 32)))))
(assert (not (not (= symbol_697 (_ bv15 32)))))
(assert (not (not (= symbol_696 (_ bv15 32)))))
(assert (not (not (= symbol_694 (_ bv15 32)))))
(assert (not (not (= symbol_692 (_ bv15 32)))))
(assert (not (not (= symbol_690 (_ bv15 32)))))
(assert (not (not (= symbol_688 (_ bv15 32)))))
(assert (not (not (= symbol_686 (_ bv15 32)))))
(assert (not (not (= symbol_684 (_ bv15 32)))))
(assert (not (not (= symbol_682 (_ bv15 32)))))
(assert (not (not (= symbol_680 (_ bv15 32)))))
(assert (not (not (= symbol_678 (_ bv15 32)))))
(assert (not (not (= symbol_676 (_ bv15 32)))))
(assert (not (not (= symbol_674 (_ bv15 32)))))
(assert (not (not (= symbol_671 (_ bv15 32)))))
(assert (not (not (= symbol_669 (_ bv15 32)))))
(assert (not (not (= symbol_667 (_ bv15 32)))))
(assert (not (not (= symbol_665 (_ bv15 32)))))
(assert (not (not (= symbol_663 (_ bv15 32)))))
(assert (not (not (= symbol_661 (_ bv15 32)))))
(assert (not (not (= symbol_659 (_ bv15 32)))))
(assert (not (not (= symbol_657 (_ bv15 32)))))
(assert (not (not (= symbol_655 (_ bv15 32)))))
(assert (not (not (= symbol_653 (_ bv15 32)))))
(assert (not (not (= symbol_651 (_ bv15 32)))))
(assert (not (not (= symbol_649 (_ bv15 32)))))
(assert (not (not (= symbol_647 (_ bv15 32)))))
(assert (not (not (= symbol_645 (_ bv15 32)))))
(assert (not (not (= symbol_643 (_ bv15 32)))))
(assert (not (not (= symbol_641 (_ bv15 32)))))
(assert (not (not (= symbol_639 (_ bv15 32)))))
(assert (not (not (= symbol_637 (_ bv15 32)))))
(assert (not (not (= symbol_635 (_ bv15 32)))))
(assert (not (not (= symbol_633 (_ bv15 32)))))
(assert (not (not (= symbol_631 (_ bv15 32)))))
(assert (not (not (= symbol_629 (_ bv15 32)))))
(assert (not (not (= symbol_628 (_ bv15 32)))))
(assert (not (not (= symbol_626 (_ bv15 32)))))
(assert (not (not (= symbol_624 (_ bv15 32)))))
(assert (not (not (= symbol_621 (_ bv15 32)))))
(assert (not (not (= symbol_620 (_ bv15 32)))))
(assert (not (not (= symbol_618 (_ bv15 32)))))
(assert (not (not (= symbol_616 (_ bv15 32)))))
(assert (not (not (= symbol_614 (_ bv15 32)))))
(assert (not (not (= symbol_612 (_ bv15 32)))))
(assert (not (not (= symbol_610 (_ bv15 32)))))
(assert (not (not (= symbol_608 (_ bv15 32)))))
(assert (not (not (= symbol_606 (_ bv15 32)))))
(assert (not (not (= symbol_604 (_ bv15 32)))))
(assert (not (not (= symbol_602 (_ bv15 32)))))
(assert (not (not (= symbol_600 (_ bv15 32)))))
(assert (not (not (= symbol_598 (_ bv15 32)))))
(assert (not (not (= symbol_596 (_ bv15 32)))))
(assert (not (not (= symbol_594 (_ bv15 32)))))
(assert (not (not (= symbol_592 (_ bv15 32)))))
(assert (not (not (= symbol_590 (_ bv15 32)))))
(assert (not (not (= symbol_588 (_ bv15 32)))))
(assert (not (not (= symbol_586 (_ bv15 32)))))
(assert (not (not (= symbol_584 (_ bv15 32)))))
(assert (not (not (= symbol_582 (_ bv15 32)))))
(assert (not (not (= symbol_580 (_ bv15 32)))))
(assert (not (not (= symbol_578 (_ bv15 32)))))
(assert (not (not (= symbol_576 (_ bv15 32)))))
(assert (not (not (= symbol_574 (_ bv15 32)))))
(assert (not (not (= symbol_572 (_ bv15 32)))))
(assert (not (not (= symbol_570 (_ bv15 32)))))
(assert (not (not (= symbol_568 (_ bv15 32)))))
(assert (not (not (= symbol_566 (_ bv15 32)))))
(assert (not (not (= symbol_564 (_ bv15 32)))))
(assert (not (not (= symbol_562 (_ bv15 32)))))
(assert (not (not (= symbol_560 (_ bv15 32)))))
(assert (not (not (= symbol_558 (_ bv15 32)))))
(assert (not (not (= symbol_556 (_ bv15 32)))))
(assert (not (not (= symbol_554 (_ bv15 32)))))
(assert (not (not (= symbol_552 (_ bv15 32)))))
(assert (not (not (= symbol_550 (_ bv15 32)))))
(assert (not (not (= symbol_548 (_ bv15 32)))))
(assert (not (not (= symbol_546 (_ bv15 32)))))
(assert (not (not (= symbol_544 (_ bv15 32)))))
(assert (not (not (= symbol_542 (_ bv15 32)))))
(assert (not (not (= symbol_540 (_ bv15 32)))))
(assert (not (not (= symbol_538 (_ bv15 32)))))
(assert (not (not (= symbol_536 (_ bv15 32)))))
(assert (not (not (= symbol_534 (_ bv15 32)))))
(assert (not (not (= symbol_532 (_ bv15 32)))))
(assert (not (not (= symbol_530 (_ bv15 32)))))
(assert (not (not (= symbol_528 (_ bv15 32)))))
(assert (not (not (= symbol_526 (_ bv15 32)))))
(assert (not (not (= symbol_523 (_ bv15 32)))))
(assert (not (not (= symbol_521 (_ bv15 32)))))
(assert (not (not (= symbol_519 (_ bv15 32)))))
(assert (not (not (= symbol_517 (_ bv15 32)))))
(assert (not (not (= symbol_515 (_ bv15 32)))))
(assert (not (not (= symbol_513 (_ bv15 32)))))
(assert (not (not (= symbol_511 (_ bv15 32)))))
(assert (not (not (= symbol_510 (_ bv15 32)))))
(assert (not (not (= symbol_508 (_ bv15 32)))))
(assert (not (not (= symbol_506 (_ bv15 32)))))
(assert (not (not (= symbol_504 (_ bv15 32)))))
(assert (not (not (= symbol_502 (_ bv15 32)))))
(assert (not (not (= symbol_500 (_ bv15 32)))))
(assert (not (not (= symbol_498 (_ bv15 32)))))
(assert (not (not (= symbol_496 (_ bv15 32)))))
(assert (not (not (= symbol_494 (_ bv15 32)))))
(assert (not (not (= symbol_492 (_ bv15 32)))))
(assert (not (not (= symbol_490 (_ bv15 32)))))
(assert (not (not (= symbol_488 (_ bv15 32)))))
(assert (not (not (= symbol_486 (_ bv15 32)))))
(assert (not (not (= symbol_484 (_ bv15 32)))))
(assert (not (not (= symbol_482 (_ bv15 32)))))
(assert (not (not (= symbol_480 (_ bv15 32)))))
(assert (not (not (= symbol_478 (_ bv15 32)))))
(assert (not (not (= symbol_476 (_ bv15 32)))))
(assert (not (not (= symbol_474 (_ bv15 32)))))
(assert (not (not (= symbol_472 (_ bv15 32)))))
(assert (not (not (= symbol_470 (_ bv15 32)))))
(assert (not (not (= symbol_468 (_ bv15 32)))))
(assert (not (not (= symbol_466 (_ bv15 32)))))
(assert (not (not (= symbol_464 (_ bv15 32)))))
(assert (not (not (= symbol_462 (_ bv15 32)))))
(assert (not (not (= symbol_460 (_ bv15 32)))))
(assert (not (not (= symbol_458 (_ bv15 32)))))
(assert (not (not (= symbol_455 (_ bv15 32)))))
(assert (not (not (= symbol_453 (_ bv15 32)))))
(assert (not (not (= symbol_451 (_ bv15 32)))))
(assert (not (not (= symbol_449 (_ bv15 32)))))
(assert (not (not (= symbol_447 (_ bv15 32)))))
(assert (not (not (= symbol_445 (_ bv15 32)))))
(assert (not (not (= symbol_444 (_ bv15 32)))))
(assert (not (not (= symbol_442 (_ bv15 32)))))
(assert (not (not (= symbol_439 (_ bv15 32)))))
(assert (not (not (= symbol_437 (_ bv15 32)))))
(assert (not (not (= symbol_436 (_ bv15 32)))))
(assert (not (not (= symbol_433 (_ bv15 32)))))
(assert (not (not (= symbol_432 (_ bv15 32)))))
(assert (not (not (= symbol_430 (_ bv15 32)))))
(assert (not (not (= symbol_428 (_ bv15 32)))))
(assert (not (not (= symbol_426 (_ bv15 32)))))
(assert (not (not (= symbol_424 (_ bv15 32)))))
(assert (not (not (= symbol_422 (_ bv15 32)))))
(assert (not (not (= symbol_419 (_ bv15 32)))))
(assert (not (not (= symbol_417 (_ bv15 32)))))
(assert (not (not (= symbol_415 (_ bv15 32)))))
(assert (not (not (= symbol_412 (_ bv15 32)))))
(assert (not (not (= symbol_410 (_ bv15 32)))))
(assert (not (not (= symbol_408 (_ bv15 32)))))
(assert (not (not (= symbol_406 (_ bv15 32)))))
(assert (not (not (= symbol_404 (_ bv15 32)))))
(assert (not (not (= symbol_402 (_ bv15 32)))))
(assert (not (not (= symbol_400 (_ bv15 32)))))
(assert (not (not (= symbol_398 (_ bv15 32)))))
(assert (not (not (= symbol_396 (_ bv15 32)))))
(assert (not (not (= symbol_394 (_ bv15 32)))))
(assert (not (not (= symbol_392 (_ bv15 32)))))
(assert (not (not (= symbol_390 (_ bv15 32)))))
(assert (not (not (= symbol_388 (_ bv15 32)))))
(assert (not (not (= symbol_386 (_ bv15 32)))))
(assert (not (not (= symbol_384 (_ bv15 32)))))
(assert (not (not (= symbol_382 (_ bv15 32)))))
(assert (not (not (= symbol_380 (_ bv15 32)))))
(assert (not (not (= symbol_378 (_ bv15 32)))))
(assert (not (not (= symbol_376 (_ bv15 32)))))
(assert (not (not (= symbol_374 (_ bv15 32)))))
(assert (not (not (= symbol_372 (_ bv15 32)))))
(assert (not (not (= symbol_370 (_ bv15 32)))))
(assert (not (not (= symbol_368 (_ bv15 32)))))
(assert (not (not (= symbol_366 (_ bv15 32)))))
(assert (not (not (= symbol_364 (_ bv15 32)))))
(assert (not (not (= symbol_362 (_ bv15 32)))))
(assert (not (not (= symbol_360 (_ bv15 32)))))
(assert (not (not (= symbol_358 (_ bv15 32)))))
(assert (not (not (= symbol_356 (_ bv15 32)))))
(assert (not (not (= symbol_355 (_ bv15 32)))))
(assert (not (not (= symbol_353 (_ bv15 32)))))
(assert (not (not (= symbol_351 (_ bv15 32)))))
(assert (not (not (= symbol_349 (_ bv15 32)))))
(assert (not (not (= symbol_347 (_ bv15 32)))))
(assert (not (not (= symbol_345 (_ bv15 32)))))
(assert (not (not (= symbol_343 (_ bv15 32)))))
(assert (not (not (= symbol_341 (_ bv15 32)))))
(assert (not (not (= symbol_339 (_ bv15 32)))))
(assert (not (not (= symbol_337 (_ bv15 32)))))
(assert (not (not (= symbol_335 (_ bv15 32)))))
(assert (not (not (= symbol_333 (_ bv15 32)))))
(assert (not (not (= symbol_331 (_ bv15 32)))))
(assert (not (not (= symbol_329 (_ bv15 32)))))
(assert (not (not (= symbol_327 (_ bv15 32)))))
(assert (not (not (= symbol_325 (_ bv15 32)))))
(assert (not (not (= symbol_323 (_ bv15 32)))))
(assert (not (not (= symbol_321 (_ bv15 32)))))
(assert (not (not (= symbol_319 (_ bv15 32)))))
(assert (not (not (= symbol_317 (_ bv15 32)))))
(assert (not (not (= symbol_315 (_ bv15 32)))))
(assert (not (not (= symbol_313 (_ bv15 32)))))
(assert (not (not (= symbol_312 (_ bv15 32)))))
(assert (not (not (= symbol_310 (_ bv15 32)))))
(assert (not (not (= symbol_308 (_ bv15 32)))))
(assert (not (not (= symbol_306 (_ bv15 32)))))
(assert (not (not (= symbol_304 (_ bv15 32)))))
(assert (not (not (= symbol_302 (_ bv15 32)))))
(assert (not (not (= symbol_300 (_ bv15 32)))))
(assert (not (not (= symbol_298 (_ bv15 32)))))
(assert (not (not (= symbol_296 (_ bv15 32)))))
(assert (not (not (= symbol_294 (_ bv15 32)))))
(assert (not (not (= symbol_291 (_ bv15 32)))))
(assert (not (not (= symbol_289 (_ bv15 32)))))
(assert (not (not (= symbol_287 (_ bv15 32)))))
(assert (not (not (= symbol_285 (_ bv15 32)))))
(assert (not (not (= symbol_283 (_ bv15 32)))))
(assert (not (not (= symbol_281 (_ bv15 32)))))
(assert (not (not (= symbol_279 (_ bv15 32)))))
(assert (not (not (= symbol_278 (_ bv15 32)))))
(assert (not (not (= symbol_276 (_ bv15 32)))))
(assert (not (not (= symbol_274 (_ bv15 32)))))
(assert (not (not (= symbol_272 (_ bv15 32)))))
(assert (not (not (= symbol_270 (_ bv15 32)))))
(assert (not (not (= symbol_267 (_ bv15 32)))))
(assert (not (not (= symbol_265 (_ bv15 32)))))
(assert (not (not (= symbol_263 (_ bv15 32)))))
(assert (not (not (= symbol_261 (_ bv15 32)))))
(assert (not (not (= symbol_259 (_ bv15 32)))))
(assert (not (not (= symbol_257 (_ bv15 32)))))
(assert (not (not (= symbol_255 (_ bv15 32)))))
(assert (not (not (= symbol_253 (_ bv15 32)))))
(assert (not (not (= symbol_251 (_ bv15 32)))))
(assert (not (not (= symbol_249 (_ bv15 32)))))
(assert (not (not (= symbol_247 (_ bv15 32)))))
(assert (not (not (= symbol_245 (_ bv15 32)))))
(assert (not (not (= symbol_242 (_ bv15 32)))))
(assert (not (not (= symbol_240 (_ bv15 32)))))
(assert (not (not (= symbol_238 (_ bv15 32)))))
(assert (not (not (= symbol_236 (_ bv15 32)))))
(assert (not (not (= symbol_234 (_ bv15 32)))))
(assert (not (not (= symbol_232 (_ bv15 32)))))
(assert (not (not (= symbol_230 (_ bv15 32)))))
(assert (not (not (= symbol_228 (_ bv15 32)))))
(assert (not (not (= symbol_226 (_ bv15 32)))))
(assert (not (not (= symbol_224 (_ bv15 32)))))
(assert (not (not (= symbol_222 (_ bv15 32)))))
(assert (not (not (= symbol_220 (_ bv15 32)))))
(assert (not (not (= symbol_218 (_ bv15 32)))))
(assert (not (not (= symbol_216 (_ bv15 32)))))
(assert (not (not (= symbol_214 (_ bv15 32)))))
(assert (not (not (= symbol_212 (_ bv15 32)))))
(assert (not (not (= symbol_210 (_ bv15 32)))))
(assert (not (not (= symbol_208 (_ bv15 32)))))
(assert (not (not (= symbol_206 (_ bv15 32)))))
(assert (not (not (= symbol_204 (_ bv15 32)))))
(assert (not (not (= symbol_202 (_ bv15 32)))))
(assert (not (not (= symbol_200 (_ bv15 32)))))
(assert (not (not (= symbol_198 (_ bv15 32)))))
(assert (not (not (= symbol_196 (_ bv15 32)))))
(assert (not (not (= symbol_194 (_ bv15 32)))))
(assert (not (not (= symbol_192 (_ bv15 32)))))
(assert (not (not (= symbol_190 (_ bv15 32)))))
(assert (not (not (= symbol_187 (_ bv15 32)))))
(assert (not (not (= symbol_185 (_ bv15 32)))))
(assert (not (not (= symbol_183 (_ bv15 32)))))
(assert (not (not (= symbol_181 (_ bv15 32)))))
(assert (not (not (= symbol_178 (_ bv15 32)))))
(assert (not (not (= symbol_176 (_ bv15 32)))))
(assert (not (not (= symbol_174 (_ bv15 32)))))
(assert (not (not (= symbol_172 (_ bv15 32)))))
(assert (not (not (= symbol_170 (_ bv15 32)))))
(assert (not (not (= symbol_168 (_ bv15 32)))))
(assert (not (not (= symbol_166 (_ bv15 32)))))
(assert (not (not (= symbol_164 (_ bv15 32)))))
(assert (not (not (= symbol_162 (_ bv15 32)))))
(assert (not (not (= symbol_160 (_ bv15 32)))))
(assert (not (not (= symbol_158 (_ bv15 32)))))
(assert (not (not (= symbol_156 (_ bv15 32)))))
(assert (not (not (= symbol_154 (_ bv15 32)))))
(assert (not (not (= symbol_152 (_ bv15 32)))))
(assert (not (not (= symbol_150 (_ bv15 32)))))
(assert (not (not (= symbol_148 (_ bv15 32)))))
(assert (not (not (= symbol_146 (_ bv15 32)))))
(assert (not (not (= symbol_144 (_ bv15 32)))))
(assert (not (not (= symbol_142 (_ bv15 32)))))
(assert (not (not (= symbol_140 (_ bv15 32)))))
(assert (not (not (= symbol_138 (_ bv15 32)))))
(assert (not (not (= symbol_136 (_ bv15 32)))))
(assert (not (not (= symbol_134 (_ bv15 32)))))
(assert (not (not (= symbol_133 (_ bv15 32)))))
(assert (not (not (= symbol_131 (_ bv15 32)))))
(assert (not (not (= symbol_129 (_ bv15 32)))))
(assert (not (not (= symbol_127 (_ bv15 32)))))
(assert (not (not (= symbol_125 (_ bv15 32)))))
(assert (not (not (= symbol_123 (_ bv15 32)))))
(assert (not (not (= symbol_121 (_ bv15 32)))))
(assert (not (not (= symbol_119 (_ bv15 32)))))
(assert (not (not (= symbol_117 (_ bv15 32)))))
(assert (not (not (= symbol_116 (_ bv15 32)))))
(assert (not (not (= symbol_114 (_ bv15 32)))))
(assert (not (not (= symbol_112 (_ bv15 32)))))
(assert (not (not (= symbol_110 (_ bv15 32)))))
(assert (not (not (= symbol_108 (_ bv15 32)))))
(assert (not (not (= symbol_107 (_ bv15 32)))))
(assert (not (not (= symbol_105 (_ bv15 32)))))
(assert (not (not (= symbol_103 (_ bv15 32)))))
(assert (not (not (= symbol_101 (_ bv15 32)))))
(assert (not (not (= symbol_99 (_ bv15 32)))))
(assert (not (not (= symbol_97 (_ bv15 32)))))
(assert (not (not (= symbol_95 (_ bv15 32)))))
(assert (not (not (= symbol_93 (_ bv15 32)))))
(assert (not (not (= symbol_91 (_ bv15 32)))))
(assert (not (not (= symbol_89 (_ bv15 32)))))
(assert (not (not (= symbol_87 (_ bv15 32)))))
(assert (not (not (= symbol_85 (_ bv15 32)))))
(assert (not (not (= symbol_83 (_ bv15 32)))))
(assert (not (not (= symbol_81 (_ bv15 32)))))
(assert (not (not (= symbol_79 (_ bv15 32)))))
(assert (not (not (= symbol_77 (_ bv15 32)))))
(assert (not (not (= symbol_74 (_ bv15 32)))))
(assert (not (not (= symbol_72 (_ bv15 32)))))
(assert (not (not (= symbol_70 (_ bv15 32)))))
(assert (not (not (= symbol_68 (_ bv15 32)))))
(assert (not (not (= symbol_65 (_ bv15 32)))))
(assert (not (not (= symbol_63 (_ bv15 32)))))
(assert (not (not (= symbol_62 (_ bv15 32)))))
(assert (not (not (= symbol_60 (_ bv15 32)))))
(assert (not (not (= symbol_58 (_ bv15 32)))))
(assert (not (not (= symbol_56 (_ bv15 32)))))
(assert (not (not (= symbol_53 (_ bv15 32)))))
(assert (not (not (= symbol_52 (_ bv15 32)))))
(assert (not (not (= symbol_50 (_ bv15 32)))))
(assert (not (not (= symbol_48 (_ bv15 32)))))
(assert (not (not (= symbol_47 (_ bv15 32)))))
(assert (not (not (= symbol_44 (_ bv15 32)))))
(assert (not (not (= symbol_43 (_ bv15 32)))))
(assert (not (not (= symbol_41 (_ bv15 32)))))
(assert (not (not (= symbol_39 (_ bv15 32)))))
(assert (not (not (= symbol_37 (_ bv15 32)))))
(assert (not (not (= symbol_35 (_ bv15 32)))))
(assert (not (not (= symbol_33 (_ bv15 32)))))
(assert (not (not (= symbol_31 (_ bv15 32)))))
(assert (not (not (= symbol_29 (_ bv15 32)))))
(assert (not (not (= symbol_28 (_ bv15 32)))))
(assert (not (not (= symbol_26 (_ bv15 32)))))
(assert (not (not (= symbol_24 (_ bv15 32)))))
(assert (not (not (= symbol_22 (_ bv15 32)))))
(assert (not (not (= symbol_21 (_ bv15 32)))))
(assert (not (not (= symbol_19 (_ bv15 32)))))
(assert (not (not (= symbol_16 (_ bv15 32)))))
(assert (not (not (= symbol_14 (_ bv15 32)))))
(assert (not (not (= symbol_12 (_ bv15 32)))))
(assert (not (not (= symbol_10 (_ bv15 32)))))
(assert (not (not (= symbol_8 (_ bv15 32)))))
(assert (not (not (= symbol_6 (_ bv15 32)))))
(assert (not (not (= symbol_3 (_ bv15 32)))))
(assert (not (not (= symbol_1 (_ bv15 32)))))
(assert (not (not (= symbol_0 (_ bv15 32)))))
(check-sat)